Tried aggregator 2 times.
MIP Presolve eliminated 37 rows and 26 columns.
MIP Presolve modified 12 coefficients.
Aggregator did 4 substitutions.
All rows and columns eliminated.
Presolve time =    0.00 sec.
Solution status 101.
Objective value 30

Elapsed time : 0.000 
